13188
0 1 0 0 0 1 0 0 1 1 0 0 1 1 1 1 0 0 0 0 
12 12 12 12 12 12 12 12 1 1 1 1 1 1 1 12 8 8 8 8 8 8 8 8 14 14 14 14 14 8 14 14 14 9 14 9 9 9 1 9 9 9 13 13 13 9 13 13 13 13 13 13 13 13 13 13 13 13 13 5 5 5 13 5 5 5 5 5 5 5 5 5 14 5 15 15 15 15 15 15 
